(set-info :Origin "This instance was generated by: BanditFuzz-- an RL fuzzer for SMT solvers" )
(set-info :Author "Joe Scott, Fed Mora, Vijay Ganesh" )
(set-info :Contact "Joe Scott, joseph.scott@uwaterloo.ca")
(set-logic QF_BV)
(declare-const bool_0 Bool)
(declare-const bool_1 Bool)
(declare-const bool_2 Bool)
(declare-const bool_3 Bool)
(declare-const bool_4 Bool)
(declare-const bv_0 (_ BitVec 32))
(declare-const bv_1 (_ BitVec 32))
(declare-const bv_2 (_ BitVec 32))
(declare-const bv_3 (_ BitVec 32))
(declare-const bv_4 (_ BitVec 32))
(assert (bvsgt (bvand (bvnor #xae692ba5  bv_1) (bvlshr bv_0 #xc9af359e )) (bvmul (bvudiv bv_4 bv_2) (bvashr bv_2 bv_1))))
(assert (not (or (bvslt #x440e46d1  #xb620d45a ) (bvsge #x7073627a  #xe7f5e225 ))))
(assert (xor (=> (=> false bool_0) (bvsge #x9062a194  #x258bc8ed )) (bvule (bvxor #x13d1a932  #xb9e39502 ) (bvor bv_0 bv_0))))
(assert (bvsge (bvand (bvor bv_1 #xfedfe6b7 ) (bvsrem #x0a23ac91  #x23eb4e21 )) (bvand (bvlshr bv_1 #x0bb90295 ) (bvnand #x5c8c4605  #x3e2b7457 ))))
(assert (bvule (bvsmod (bvudiv #xa33d1171  bv_0) (bvashr #x3b3f7d52  #x79979b52 )) (bvand (bvmul #x78f61aeb  #x418c9864 ) (bvsub #x8b6eedf2  #xce363f56 ))))
(check-sat)
(exit)
